atom_style full
boundary p p p
units real
bond_style harmonic
angle_style harmonic
dihedral_style opls
improper_style harmonic
pair_style lj/cut/coul/long 11.0 11.0
pair_modify mix arithmetic
special_bonds lj/coul 0.0 0.0 0.5
kspace_style pppm 0.0001

